#p hf/sto-3g

Synthetic reviewed product endpoint

0 1
H 0.000000 0.000000 0.000000
H 1.200000 0.000000 0.000000

