#p hf/sto-3g opt=qst2

Synthetic reactant with a missing structure separator

0 1
H 0.000000 0.000000 0.000000
H 0.740000 0.000000 0.000000
Synthetic product title starts without a blank separator

0 1
H 0.000000 0.000000 0.000000
H 1.200000 0.000000 0.000000

