#p hf/sto-3g opt=qst2

Synthetic reactant with a Gaussian freeze flag

0 1
H 0 0.000000 0.000000 0.000000
H 0 0.740000 0.000000 0.000000

Synthetic product with a Gaussian freeze flag

0 1
H 0 0.000000 0.000000 0.000000
H 0 1.200000 0.000000 0.000000

