%chk=synthetic_qst2.chk
%mem=1GB
%nprocshared=1
#p hf/sto-3g opt=qst2

Synthetic reviewed reactant endpoint

0 1
H 0.000000 0.000000 0.000000
H 0.740000 0.000000 0.000000

Synthetic reviewed product endpoint

0 1
H 0.000000 0.000000 0.000000
H 1.200000 0.000000 0.000000

