#p hf/sto-3g

Synthetic reviewed QST3 guess, not a minimum

0 1
H 0.000000 0.000000 0.000000
H 0.950000 0.000000 0.000000

