%chk=w24_bf3ts2_b1_s01.chk
%mem=120GB
%nprocshared=44
#p wb97xd/6-31g(d) scrf=(smd,solvent=toluene) opt=(ts,calcfc,tight,noeigentest,maxstep=5,maxcycle=100) freq int=ultrafine scf=(tight,xqc,maxcycle=128)

Wang 2024 BF3-TS2-B1 standard offline TS/Freq draft

0 1
C  -2.94189100  0.11573900 -1.54873000
C  -3.60023600 -0.56037400 -0.52420900
C  -4.73622000 -0.00474800  0.05499300
C  -5.17792900  1.22100500 -0.44893100
C  -4.52369000  1.86565400 -1.50112900
C  -3.37713500  1.30986300 -2.08052700
H  -5.25742300 -0.51432900  0.85435600
H  -6.06681300  1.67328400 -0.01924200
H  -4.91388800  2.80274000 -1.88654600
H  -2.85914800  1.78406300 -2.90691200
O  -1.84781900 -0.61539300 -1.92073200
C  -1.83154600 -1.74021100 -1.14217000
C  -0.75979700 -2.60834900 -1.20846900
H  -0.95232100 -3.59089200 -0.79770000
C   0.25475600 -2.50083800 -2.30803900
H   0.45102700 -1.45814700 -2.57751600
H   1.20296100 -2.93556600 -1.96614500
H  -0.05103700 -3.03560300 -3.21638500
N  -2.88879700 -1.72968300 -0.28566400
B  -3.21793600 -2.76998200  0.85744400
C   0.28069200 -1.95831400  0.55875500
H   0.12703100 -0.89856000  0.37763600
H  -0.47236300 -2.42849900  1.17983200
C   1.58100000 -2.42211800  0.56833000
H   1.80327700 -3.44808800  0.84036100
C   2.67182900 -1.60664300  0.13264300
O   3.82256100 -2.31435600  0.07425800
O   2.62789100 -0.39595300 -0.13950400
C   5.11189500 -1.70432000 -0.17279900
C   5.15237200 -1.01898400 -1.53949000
H   4.53364200 -0.12155200 -1.56251700
H   6.18551200 -0.74531100 -1.78118200
H   4.79274200 -1.70633900 -2.31268500
C   5.46444700 -0.75343000  0.97105500
H   5.47721700 -1.29521300  1.92303600
H   6.45802200 -0.32082700  0.80983600
H   4.73920100  0.05842400  1.04473200
C   6.05993800 -2.90250600 -0.16891800
H   7.09338400 -2.57107900 -0.31486500
H   5.99772400 -3.43757500  0.78382300
H   5.80223300 -3.60026500 -0.97208200
H   1.68744600  1.11605200  0.15801900
N  -0.81147900  3.10207100  0.40921100
N   1.28220200  2.06341900  0.16771100
C   0.09454800  2.16957000  0.77349500
N  -0.20755200  1.31297900  1.76570800
C   0.82018400  0.73498600  2.62537900
H   1.01099900 -0.31347000  2.37828200
H   1.74928600  1.29677600  2.52723300
H   0.47309900  0.79646300  3.66175000
C  -1.56930500  0.85000600  2.01553100
H  -1.96065100  1.26315900  2.95181200
H  -2.22443600  1.14118000  1.19473600
H  -1.57577100 -0.24116700  2.08603300
C  -1.68187500  3.75478800  1.37458300
H  -1.34545700  3.54346600  2.38993600
H  -1.63067400  4.83706100  1.21205500
H  -2.72304100  3.43302800  1.26221400
C  -1.00831400  3.50538800 -0.97262900
H  -2.08217700  3.49939300 -1.17877500
H  -0.62334600  4.51343900 -1.16406700
H  -0.52121400  2.79619000 -1.64079800
C   2.24405400  3.13095400 -0.22407400
C   1.91267800  4.47580200  0.42633700
H   1.84356100  4.38744200  1.51580500
H   2.72346700  5.17564500  0.20156300
H   0.98837500  4.92182100  0.05472100
C   2.31831000  3.25045600 -1.75070600
H   1.41248600  3.68900900 -2.17582600
H   3.16094200  3.88982200 -2.03423500
H   2.47064800  2.26505500 -2.20273600
C   3.60912700  2.65909000  0.29833800
H   3.87073700  1.69124200 -0.13575200
H   4.38323600  3.38419400  0.02902800
H   3.59860200  2.55819200  1.38934400
F  -2.79070000 -4.02895900  0.45941500
F  -2.54298800 -2.37095800  2.02811000
F  -4.59258400 -2.73513100  1.06469200

