%chk=w24_bf3ts2_b2_s01.chk
%mem=120GB
%nprocshared=44
#p wb97xd/6-31g(d) scrf=(smd,solvent=toluene) opt=(ts,calcfc,tight,noeigentest,maxstep=5,maxcycle=100) freq int=ultrafine scf=(tight,xqc,maxcycle=128)

Wang 2024 BF3-TS2-B2 standard offline TS/Freq draft

0 1
C   2.99694600  0.38607400  1.31475000
C   2.80568400 -0.98548700  1.16688500
C   2.54612400 -1.77200000  2.28365700
C   2.46732400 -1.12541000  3.51880000
C   2.64372600  0.25393300  3.64311700
C   2.92418500  1.04406700  2.52331100
H   2.40567600 -2.84053000  2.18796000
H   2.26203700 -1.71575400  4.40732600
H   2.57552000  0.72209300  4.62012100
H   3.08193700  2.11438500  2.59691800
O   3.29144100  0.91976000  0.09023700
C   3.26611000 -0.10697000 -0.80946600
C   3.47236500  0.16597600 -2.14158100
H   3.64209800 -0.69975300 -2.76706100
C   4.03776100  1.49395100 -2.55918600
H   3.47689500  2.32093400 -2.10745200
H   5.09184400  1.61604100 -2.27601500
H   3.97382700  1.60845500 -3.64700400
N   2.95415400 -1.27725300 -0.18337700
B   2.48594000 -2.61428600 -0.85860200
C   1.34147300  0.43236600 -2.72324300
H   1.03899300 -0.44059900 -2.15644000
H   1.65407600  0.24120000 -3.74542000
C   0.85362100  1.67541400 -2.38900700
H   1.04313800  2.54126800 -3.01409000
C   0.23275100  1.90037800 -1.11680600
O  -0.00894300  3.21411000 -0.90162300
O  -0.07692800  1.02361500 -0.29856700
C  -0.58195500  3.70544100  0.33429100
C  -2.01062100  3.18906900  0.51014100
H  -2.01436900  2.11634400  0.70326300
H  -2.48970900  3.69808400  1.35415400
H  -2.60114100  3.39037100 -0.39073900
C   0.30571700  3.33928500  1.52423000
H   1.33124000  3.67799600  1.34320300
H  -0.06426900  3.83439600  2.42905100
H   0.32219500  2.26125600  1.69040000
C  -0.59339000  5.21851800  0.12728400
H  -1.19978500  5.48493700 -0.74480300
H  -1.01101400  5.71990300  1.00656100
H   0.42240500  5.59234400 -0.03513300
H  -1.50547700 -0.02689400  0.00941900
N  -4.60602100 -0.85722000 -0.13928900
N  -2.34592900 -0.49186600  0.37581900
C  -3.30891800 -0.73510700 -0.51454000
N  -3.00362500 -0.83968200 -1.81737800
C  -1.66430600 -1.17056000 -2.28993500
H  -1.16102300 -0.27134400 -2.65645400
H  -1.06059600 -1.61823600 -1.50197500
H  -1.75341600 -1.88916600 -3.11032500
C  -3.93105800 -0.43396800 -2.86523500
H  -4.28802100 -1.29902400 -3.43419400
H  -4.78343300  0.09568300 -2.44003400
H  -3.40716000  0.24172500 -3.54829700
C  -5.49691600 -1.84157400 -0.73032400
H  -4.93649900 -2.52633900 -1.36736200
H  -5.96272700 -2.42305900  0.07362600
H  -6.29132500 -1.36893100 -1.31981000
C  -5.20058700  0.00897000  0.86264000
H  -6.13261700  0.42161200  0.45951800
H  -5.43582100 -0.53153300  1.78699600
H  -4.52572900  0.83454100  1.08825600
C  -2.12847700 -1.08974100  1.72665000
C  -0.63243900 -1.42319000  1.77329500
H  -0.02827600 -0.51757500  1.67175100
H  -0.38947100 -1.88687400  2.73318500
H  -0.34122800 -2.10919300  0.97259200
C  -2.93586000 -2.37427300  1.91656200
H  -2.70548800 -3.10378300  1.13317800
H  -2.65382500 -2.82042800  2.87510000
H  -4.01578600 -2.20794600  1.93993100
C  -2.43235900 -0.07227200  2.83252300
H  -3.49920500  0.14512800  2.92490900
H  -2.09136300 -0.46973400  3.79420000
H  -1.89661000  0.86523500  2.65216700
F   3.14960700 -2.78211700 -2.06888900
F   1.09063600 -2.53694800 -1.08330200
F   2.75951000 -3.65881100  0.02087200

