%chk=synthetic_metal_fixture.chk
%mem=1GB
%nprocshared=1
#p synthetic_fixture opt=(ts,noeigentest) freq

Synthetic non-runnable transition-metal input observation fixture

0 1
Pd  0.000000  0.000000  0.000000
P   2.000000  0.000000  0.000000
C   0.000000  2.000000  0.000000
C   0.000000  0.000000  2.000000
H   0.000000  2.800000  0.600000
H   0.000000 -0.600000  2.800000
H   2.600000  0.600000  0.000000

